100 87154

 39 749
430 903
64 50
790 525
530 33
30 469
41 886
613 362
807 933
438 631
555 935
800 758
611 104
225 232
614 395
629 171
735 495
621 472
970 957
198 434
952 786
539 942
672 877
100 209
381 497
770 348
707 400
41 361
547 827
89 453
996 524
898 983
22 60
859 488
920 775
354 152
720 612
443 240
656 868
341 328
323 330
425 599
146 184
832 285
349 417
401 354
895 525
497 600
545 567
957 655
887 308
170 127
474 761
972 851
373 258
372 408
196 499
115 534
741 660
771 42
970 722
774 62
244 469
41 828
986 452
341 150
312 986
906 890
586 772
215 412
890 184
994 942
87 533
863 853
391 343
525 336
915 986
974 522
263 141
213 220
81 482
562 43
14 463
412 419
74 780
406 355
40 983
836 181
210 591
329 90
871 734
747 995
220 820
72 556
716 485
391 836
767 936
446 990
347 397
452 991
